problem_generation/data/GISP/train/er_n=64_m=1203_p=0.60_SET2_setparam=100.00_alpha=0.50_669.lp
maximize
OBJ:100x0 + 100x1 + 100x2 + 100x3 + 100x4 + 100x5 + 100x6 + 100x7 + 100x8 + 100x9 + 100x10 + 100x11 + 100x12 + 100x13 + 100x14 + 100x15 + 100x16 + 100x17 + 100x18 + 100x19 + 100x20 + 100x21 + 100x22 + 100x23 + 100x24 + 100x25 + 100x26 + 100x27 + 100x28 + 100x29 + 100x30 + 100x31 + 100x32 + 100x33 + 100x34 + 100x35 + 100x36 + 100x37 + 100x38 + 100x39 + 100x40 + 100x41 + 100x42 + 100x43 + 100x44 + 100x45 + 100x46 + 100x47 + 100x48 + 100x49 + 100x50 + 100x51 + 100x52 + 100x53 + 100x54 + 100x55 + 100x56 + 100x57 + 100x58 + 100x59 + 100x60 + 100x61 + 100x62 + 100x63 - y15_30 - y47_62 - y26_39 - y28_58 - y18_35 - y0_5 - y29_41 - y8_18 - y6_48 - y11_23 - y29_59 - y21_55 - y10_36 - y2_32 - y10_45 - y44_47 - y25_43 - y10_54 - y25_52 - y10_63 - y22_28 - y22_37 - y3_42 - y17_44 - y7_21 - y36_57 - y47_57 - y28_53 - y9_58 - y29_54 - y10_22 - y10_40 - y33_42 - y2_36 - y25_38 - y44_51 - y2_45 - y10_58 - y2_54 - y3_19 - y22_32 - y36_52 - y5_46 - y28_48 - y47_61 - y17_57 - y28_57 - y21_27 - y29_40 - y21_36 - y6_47 - y54_60 - y33_37 - y25_42 - y3_5 - y32_41 - y51_54 - y32_50 - y3_23 - y24_55 - y35_55 - y16_51 - y1_62 - y16_60 - y17_25 - y36_47 - y5_50 - y6_15 - y28_52 - y6_33 - y21_31 - y40_44 - y39_48 - y2_8 - y31_62 - y32_36 - y3_9 - y51_58 - y32_54 - y16_37 - y35_59 - y36_42 - y9_25 - y17_38 - y36_51 - y9_34 - y9_43 - y5_63 - y21_26 - y42_58 - y21_35 - y62_63 - y2_21 - y31_57 - y54_59 - y12_53 - y2_30 - y16_32 - y16_41 - y24_54 - y35_54 - y16_50 - y1_61 - y24_63 - y9_11 - y5_22 - y9_20 - y28_42 - y42_44 - y27_55 - y8_51 - y42_53 - y19_60 - y11_56 - y20_34 - y39_47 - y2_7 - y39_56 - y4_44 - y12_57 - y13_22 - y23_57 - y4_53 - y16_18 - y32_35 - y13_31 - y16_27 - y1_38 - y35_49 - y35_58 - y16_54 - y17_19 - y46_55 - y49_51 - y17_37 - y28_37 - y6_18 - y50_52 - y19_46 - y42_48 - y0_51 - y39_42 - y31_38 - y39_51 - y12_34 - y2_11 - y31_47 - y39_60 - y23_43 - y31_56 - y1_15 - y4_48 - y12_61 - y1_24 - y23_61 - y34_58 - y16_49 - y38_46 - y57_59 - y9_19 - y38_55 - y7_58 - y27_36 - y6_13 - y27_45 - y42_43 - y50_56 - y11_37 - y19_59 - y20_24 - y0_55 - y39_46 - y23_38 - y23_47 - y4_43 - y34_53 - y24_30 - y45_62 - y56_62 - y37_58 - y38_41 - y5_25 - y57_63 - y7_53 - y18_53 - y8_27 - y19_36 - y0_32 - y8_45 - y30_45 - y11_41 - y8_54 - y42_56 - y0_50 - y8_63 - y20_28 - y4_11 - y0_59 - y41_60 - y31_37 - y12_33 - y12_42 - y23_42 - y34_39 - y13_16 - y4_47 - y34_57 - y37_53 - y16_30 - y3_60 - y5_11 - y38_45 - y7_57 - y8_22 - y19_22 - y27_35 - y0_18 - y11_18 - y30_31 - y27_44 - y20_23 - y4_6 - y41_55 - y33_60 - y4_33 - y1_9 - y22_41 - y53_56 - y37_48 - y22_59 - y56_61 - y37_57 - y15_38 - y26_38 - y38_40 - y26_47 - y0_4 - y7_52 - y27_30 - y29_58 - y8_35 - y11_31 - y0_40 - y41_50 - y44_46 - y52_59 - y4_19 - y25_51 - y4_28 - y10_62 - y1_13 - y45_47 - y14_41 - y37_43 - y22_63 - y15_51 - y7_47 - y8_12 - y19_21 - y29_53 - y19_30 - y0_35 - y52_54 - y33_50 - y52_63 - y33_59 - y2_53 - y25_55 - y34_51 - y15_19 - y7_15 - y3_63 - y7_24 - y26_37 - y18_33 - y26_46 - y48_52 - y29_48 - y11_30 - y41_49 - y33_45 - y44_45 - y25_41 - y10_52 - y33_54 - y25_50 - y22_35 - y3_40 - y37_42 - y7_10 - y26_32 - y8_11 - y6_41 - y11_16 - y29_52 - y29_61 - y10_20 - y2_25 - y25_27 - y33_49 - y25_45 - y32_53 - y2_61 - y14_26 - y43_62 - y7_14 - y47_50 - y28_46 - y36_59 - y59_61 - y21_25 - y0_2 - y6_45 - y21_43 - y6_54 - y29_56 - y40_56 - y6_63 - y10_33 - y33_44 - y32_48 - y43_48 - y24_53 - y3_30 - y7_9 - y36_54 - y9_37 - y28_50 - y36_63 - y9_46 - y40_42 - y21_38 - y40_51 - y6_58 - y10_19 - y39_55 - y2_24 - y10_37 - y2_33 - y24_39 - y35_39 - y13_48 - y14_25 - y16_44 - y32_61 - y1_55 - y43_61 - y16_53 - y16_62 - y36_40 - y36_49 - y47_49 - y6_8 - y36_58 - y5_52 - y17_54 - y39_50 - y2_10 - y10_23 - y20_55 - y23_60 - y13_25 - y2_37 - y4_56 - y32_38 - y13_34 - y3_11 - y35_43 - y13_52 - y35_52 - y16_48 - y1_59 - y17_22 - y28_31 - y5_47 - y17_49 - y6_30 - y42_51 - y27_62 - y6_39 - y0_63 - y39_45 - y39_54 - y2_14 - y31_50 - y23_46 - y31_59 - y23_55 - y13_20 - y4_51 - y32_33 - y24_29 - y32_42 - y1_36 - y13_38 - y32_51 - y16_43 - y1_54 - y35_56 - y1_63 - y16_61 - y5_24 - y36_39 - y9_22 - y49_58 - y17_35 - y28_35 - y5_42 - y9_40 - y27_48 - y42_46 - y50_59 - y0_49 - y8_62 - y30_62 - y39_49 - y12_32 - y31_54 - y4_37 - y54_56 - y23_50 - y20_63 - y4_46 - y31_63 - y13_24 - y1_22 - y32_46 - y16_29 - y43_46 - y1_40 - y1_49 - y16_47 - y5_10 - y1_58 - y46_48 - y38_44 - y5_19 - y38_53 - y38_62 - y5_37 - y6_11 - y19_39 - y30_39 - y50_54 - y30_48 - y42_50 - y61_63 - y11_53 - y20_31 - y0_62 - y11_62 - y4_23 - y4_32 - y20_58 - y31_58 - y12_54 - y1_17 - y13_28 - y13_37 - y16_33 - y1_44 - y16_42 - y15_46 - y57_61 - y26_55 - y49_57 - y5_32 - y18_60 - y0_30 - y8_43 - y27_56 - y0_39 - y8_52 - y12_22 - y31_44 - y4_27 - y13_14 - y34_46 - y45_46 - y13_23 - y53_59 - y34_55 - y1_30 - y22_62 - y37_60 - y15_41 - y38_43 - y9_16 - y7_46 - y26_59 - y7_55 - y8_20 - y18_55 - y19_29 - y30_38 - y27_51 - y30_56 - y20_21 - y0_52 - y11_52 - y52_53 - y4_13 - y0_61 - y11_61 - y12_26 - y31_39 - y4_22 - y33_58 - y23_35 - y25_63 - y4_40 - y34_50 - y1_25 - y53_63 - y34_59 - y14_53 - y3_62 - y26_27 - y7_32 - y0_11 - y19_24 - y0_20 - y11_29 - y19_42 - y11_38 - y4_8 - y10_60 - y33_62 - y44_62 - y3_39 - y37_41 - y45_63 - y15_22 - y7_18 - y37_49 - y26_49 - y7_45 - y18_45 - y7_54 - y18_54 - y30_37 - y11_42 - y52_61 - y2_51 - y25_53 - y1_6 - y37_45 - y22_56 - y56_58 - y14_52 - y37_54 - y15_26 - y55_62 - y15_35 - y26_35 - y15_44 - y17_63 - y18_40 - y7_49 - y40_46 - y8_23 - y19_23 - y0_19 - y11_19 - y30_32 - y0_28 - y11_28 - y41_47 - y4_7 - y41_56 - y52_56 - y4_16 - y10_59 - y22_24 - y3_20 - y14_20 - y22_33 - y3_38 - y14_38 - y14_47
 Subject to
C1: x0+x1 <=1 
C2: x0+x2-y0_2 <=1 
C3: x0+x4-y0_4 <=1 
C4: x0+x5-y0_5 <=1 
C5: x0+x8 <=1 
C6: x0+x10 <=1 
C7: x0+x11-y0_11 <=1 
C8: x0+x12 <=1 
C9: x0+x13 <=1 
C10: x0+x16 <=1 
C11: x0+x18-y0_18 <=1 
C12: x0+x19-y0_19 <=1 
C13: x0+x20-y0_20 <=1 
C14: x0+x21 <=1 
C15: x0+x23 <=1 
C16: x0+x24 <=1 
C17: x0+x25 <=1 
C18: x0+x28-y0_28 <=1 
C19: x0+x29 <=1 
C20: x0+x30-y0_30 <=1 
C21: x0+x32-y0_32 <=1 
C22: x0+x34 <=1 
C23: x0+x35-y0_35 <=1 
C24: x0+x36 <=1 
C25: x0+x37 <=1 
C26: x0+x38 <=1 
C27: x0+x39-y0_39 <=1 
C28: x0+x40-y0_40 <=1 
C29: x0+x43 <=1 
C30: x0+x44 <=1 
C31: x0+x45 <=1 
C32: x0+x46 <=1 
C33: x0+x47 <=1 
C34: x0+x48 <=1 
C35: x0+x49-y0_49 <=1 
C36: x0+x50-y0_50 <=1 
C37: x0+x51-y0_51 <=1 
C38: x0+x52-y0_52 <=1 
C39: x0+x53 <=1 
C40: x0+x54 <=1 
C41: x0+x55-y0_55 <=1 
C42: x0+x57 <=1 
C43: x0+x58 <=1 
C44: x0+x59-y0_59 <=1 
C45: x0+x60 <=1 
C46: x0+x61-y0_61 <=1 
C47: x0+x62-y0_62 <=1 
C48: x0+x63-y0_63 <=1 
C49: x1+x2 <=1 
C50: x1+x6-y1_6 <=1 
C51: x1+x7 <=1 
C52: x1+x9-y1_9 <=1 
C53: x1+x10 <=1 
C54: x1+x12 <=1 
C55: x1+x13-y1_13 <=1 
C56: x1+x14 <=1 
C57: x1+x15-y1_15 <=1 
C58: x1+x16 <=1 
C59: x1+x17-y1_17 <=1 
C60: x1+x19 <=1 
C61: x1+x21 <=1 
C62: x1+x22-y1_22 <=1 
C63: x1+x23 <=1 
C64: x1+x24-y1_24 <=1 
C65: x1+x25-y1_25 <=1 
C66: x1+x27 <=1 
C67: x1+x30-y1_30 <=1 
C68: x1+x32 <=1 
C69: x1+x33 <=1 
C70: x1+x35 <=1 
C71: x1+x36-y1_36 <=1 
C72: x1+x37 <=1 
C73: x1+x38-y1_38 <=1 
C74: x1+x40-y1_40 <=1 
C75: x1+x42 <=1 
C76: x1+x44-y1_44 <=1 
C77: x1+x48 <=1 
C78: x1+x49-y1_49 <=1 
C79: x1+x50 <=1 
C80: x1+x51 <=1 
C81: x1+x52 <=1 
C82: x1+x53 <=1 
C83: x1+x54-y1_54 <=1 
C84: x1+x55-y1_55 <=1 
C85: x1+x56 <=1 
C86: x1+x57 <=1 
C87: x1+x58-y1_58 <=1 
C88: x1+x59-y1_59 <=1 
C89: x1+x61-y1_61 <=1 
C90: x1+x62-y1_62 <=1 
C91: x1+x63-y1_63 <=1 
C92: x2+x5 <=1 
C93: x2+x6 <=1 
C94: x2+x7-y2_7 <=1 
C95: x2+x8-y2_8 <=1 
C96: x2+x9 <=1 
C97: x2+x10-y2_10 <=1 
C98: x2+x11-y2_11 <=1 
C99: x2+x13 <=1 
C100: x2+x14-y2_14 <=1 
C101: x2+x16 <=1 
C102: x2+x18 <=1 
C103: x2+x19 <=1 
C104: x2+x21-y2_21 <=1 
C105: x2+x22 <=1 
C106: x2+x23 <=1 
C107: x2+x24-y2_24 <=1 
C108: x2+x25-y2_25 <=1 
C109: x2+x27 <=1 
C110: x2+x29 <=1 
C111: x2+x30-y2_30 <=1 
C112: x2+x32-y2_32 <=1 
C113: x2+x33-y2_33 <=1 
C114: x2+x36-y2_36 <=1 
C115: x2+x37-y2_37 <=1 
C116: x2+x38 <=1 
C117: x2+x39 <=1 
C118: x2+x40 <=1 
C119: x2+x43 <=1 
C120: x2+x45-y2_45 <=1 
C121: x2+x48 <=1 
C122: x2+x49 <=1 
C123: x2+x50 <=1 
C124: x2+x51-y2_51 <=1 
C125: x2+x53-y2_53 <=1 
C126: x2+x54-y2_54 <=1 
C127: x2+x55 <=1 
C128: x2+x56 <=1 
C129: x2+x57 <=1 
C130: x2+x58 <=1 
C131: x2+x59 <=1 
C132: x2+x60 <=1 
C133: x2+x61-y2_61 <=1 
C134: x3+x5-y3_5 <=1 
C135: x3+x6 <=1 
C136: x3+x8 <=1 
C137: x3+x9-y3_9 <=1 
C138: x3+x11-y3_11 <=1 
C139: x3+x15 <=1 
C140: x3+x16 <=1 
C141: x3+x17 <=1 
C142: x3+x19-y3_19 <=1 
C143: x3+x20-y3_20 <=1 
C144: x3+x21 <=1 
C145: x3+x23-y3_23 <=1 
C146: x3+x24 <=1 
C147: x3+x26 <=1 
C148: x3+x29 <=1 
C149: x3+x30-y3_30 <=1 
C150: x3+x31 <=1 
C151: x3+x32 <=1 
C152: x3+x33 <=1 
C153: x3+x34 <=1 
C154: x3+x38-y3_38 <=1 
C155: x3+x39-y3_39 <=1 
C156: x3+x40-y3_40 <=1 
C157: x3+x41 <=1 
C158: x3+x42-y3_42 <=1 
C159: x3+x46 <=1 
C160: x3+x47 <=1 
C161: x3+x48 <=1 
C162: x3+x50 <=1 
C163: x3+x51 <=1 
C164: x3+x58 <=1 
C165: x3+x59 <=1 
C166: x3+x60-y3_60 <=1 
C167: x3+x61 <=1 
C168: x3+x62-y3_62 <=1 
C169: x3+x63-y3_63 <=1 
C170: x4+x5 <=1 
C171: x4+x6-y4_6 <=1 
C172: x4+x7-y4_7 <=1 
C173: x4+x8-y4_8 <=1 
C174: x4+x9 <=1 
C175: x4+x11-y4_11 <=1 
C176: x4+x12 <=1 
C177: x4+x13-y4_13 <=1 
C178: x4+x16-y4_16 <=1 
C179: x4+x19-y4_19 <=1 
C180: x4+x20 <=1 
C181: x4+x22-y4_22 <=1 
C182: x4+x23-y4_23 <=1 
C183: x4+x27-y4_27 <=1 
C184: x4+x28-y4_28 <=1 
C185: x4+x30 <=1 
C186: x4+x31 <=1 
C187: x4+x32-y4_32 <=1 
C188: x4+x33-y4_33 <=1 
C189: x4+x37-y4_37 <=1 
C190: x4+x39 <=1 
C191: x4+x40-y4_40 <=1 
C192: x4+x41 <=1 
C193: x4+x43-y4_43 <=1 
C194: x4+x44-y4_44 <=1 
C195: x4+x45 <=1 
C196: x4+x46-y4_46 <=1 
C197: x4+x47-y4_47 <=1 
C198: x4+x48-y4_48 <=1 
C199: x4+x49 <=1 
C200: x4+x50 <=1 
C201: x4+x51-y4_51 <=1 
C202: x4+x52 <=1 
C203: x4+x53-y4_53 <=1 
C204: x4+x56-y4_56 <=1 
C205: x4+x57 <=1 
C206: x4+x59 <=1 
C207: x4+x60 <=1 
C208: x4+x63 <=1 
C209: x5+x6 <=1 
C210: x5+x8 <=1 
C211: x5+x10-y5_10 <=1 
C212: x5+x11-y5_11 <=1 
C213: x5+x18 <=1 
C214: x5+x19-y5_19 <=1 
C215: x5+x21 <=1 
C216: x5+x22-y5_22 <=1 
C217: x5+x24-y5_24 <=1 
C218: x5+x25-y5_25 <=1 
C219: x5+x30 <=1 
C220: x5+x31 <=1 
C221: x5+x32-y5_32 <=1 
C222: x5+x33 <=1 
C223: x5+x37-y5_37 <=1 
C224: x5+x38 <=1 
C225: x5+x39 <=1 
C226: x5+x40 <=1 
C227: x5+x41 <=1 
C228: x5+x42-y5_42 <=1 
C229: x5+x44 <=1 
C230: x5+x45 <=1 
C231: x5+x46-y5_46 <=1 
C232: x5+x47-y5_47 <=1 
C233: x5+x48 <=1 
C234: x5+x50-y5_50 <=1 
C235: x5+x52-y5_52 <=1 
C236: x5+x54 <=1 
C237: x5+x58 <=1 
C238: x5+x63-y5_63 <=1 
C239: x6+x7 <=1 
C240: x6+x8-y6_8 <=1 
C241: x6+x9 <=1 
C242: x6+x11-y6_11 <=1 
C243: x6+x13-y6_13 <=1 
C244: x6+x15-y6_15 <=1 
C245: x6+x17 <=1 
C246: x6+x18-y6_18 <=1 
C247: x6+x19 <=1 
C248: x6+x21 <=1 
C249: x6+x24 <=1 
C250: x6+x27 <=1 
C251: x6+x28 <=1 
C252: x6+x29 <=1 
C253: x6+x30-y6_30 <=1 
C254: x6+x33-y6_33 <=1 
C255: x6+x34 <=1 
C256: x6+x36 <=1 
C257: x6+x37 <=1 
C258: x6+x39-y6_39 <=1 
C259: x6+x40 <=1 
C260: x6+x41-y6_41 <=1 
C261: x6+x43 <=1 
C262: x6+x45-y6_45 <=1 
C263: x6+x47-y6_47 <=1 
C264: x6+x48-y6_48 <=1 
C265: x6+x51 <=1 
C266: x6+x54-y6_54 <=1 
C267: x6+x58-y6_58 <=1 
C268: x6+x60 <=1 
C269: x6+x62 <=1 
C270: x6+x63-y6_63 <=1 
C271: x7+x9-y7_9 <=1 
C272: x7+x10-y7_10 <=1 
C273: x7+x11 <=1 
C274: x7+x14-y7_14 <=1 
C275: x7+x15-y7_15 <=1 
C276: x7+x18-y7_18 <=1 
C277: x7+x20 <=1 
C278: x7+x21-y7_21 <=1 
C279: x7+x23 <=1 
C280: x7+x24-y7_24 <=1 
C281: x7+x25 <=1 
C282: x7+x26 <=1 
C283: x7+x32-y7_32 <=1 
C284: x7+x33 <=1 
C285: x7+x34 <=1 
C286: x7+x35 <=1 
C287: x7+x37 <=1 
C288: x7+x40 <=1 
C289: x7+x41 <=1 
C290: x7+x42 <=1 
C291: x7+x45-y7_45 <=1 
C292: x7+x46-y7_46 <=1 
C293: x7+x47-y7_47 <=1 
C294: x7+x48 <=1 
C295: x7+x49-y7_49 <=1 
C296: x7+x52-y7_52 <=1 
C297: x7+x53-y7_53 <=1 
C298: x7+x54-y7_54 <=1 
C299: x7+x55-y7_55 <=1 
C300: x7+x57-y7_57 <=1 
C301: x7+x58-y7_58 <=1 
C302: x7+x59 <=1 
C303: x7+x60 <=1 
C304: x7+x62 <=1 
C305: x7+x63 <=1 
C306: x8+x9 <=1 
C307: x8+x10 <=1 
C308: x8+x11-y8_11 <=1 
C309: x8+x12-y8_12 <=1 
C310: x8+x14 <=1 
C311: x8+x15 <=1 
C312: x8+x17 <=1 
C313: x8+x18-y8_18 <=1 
C314: x8+x20-y8_20 <=1 
C315: x8+x22-y8_22 <=1 
C316: x8+x23-y8_23 <=1 
C317: x8+x25 <=1 
C318: x8+x26 <=1 
C319: x8+x27-y8_27 <=1 
C320: x8+x30 <=1 
C321: x8+x33 <=1 
C322: x8+x35-y8_35 <=1 
C323: x8+x37 <=1 
C324: x8+x40 <=1 
C325: x8+x43-y8_43 <=1 
C326: x8+x44 <=1 
C327: x8+x45-y8_45 <=1 
C328: x8+x47 <=1 
C329: x8+x49 <=1 
C330: x8+x51-y8_51 <=1 
C331: x8+x52-y8_52 <=1 
C332: x8+x54-y8_54 <=1 
C333: x8+x57 <=1 
C334: x8+x58 <=1 
C335: x8+x61 <=1 
C336: x8+x62-y8_62 <=1 
C337: x8+x63-y8_63 <=1 
C338: x9+x11-y9_11 <=1 
C339: x9+x12 <=1 
C340: x9+x16-y9_16 <=1 
C341: x9+x19-y9_19 <=1 
C342: x9+x20-y9_20 <=1 
C343: x9+x22-y9_22 <=1 
C344: x9+x23 <=1 
C345: x9+x24 <=1 
C346: x9+x25-y9_25 <=1 
C347: x9+x28 <=1 
C348: x9+x31 <=1 
C349: x9+x33 <=1 
C350: x9+x34-y9_34 <=1 
C351: x9+x36 <=1 
C352: x9+x37-y9_37 <=1 
C353: x9+x39 <=1 
C354: x9+x40-y9_40 <=1 
C355: x9+x41 <=1 
C356: x9+x43-y9_43 <=1 
C357: x9+x45 <=1 
C358: x9+x46-y9_46 <=1 
C359: x9+x47 <=1 
C360: x9+x49 <=1 
C361: x9+x50 <=1 
C362: x9+x52 <=1 
C363: x9+x53 <=1 
C364: x9+x54 <=1 
C365: x9+x58-y9_58 <=1 
C366: x9+x59 <=1 
C367: x9+x60 <=1 
C368: x9+x61 <=1 
C369: x9+x62 <=1 
C370: x9+x63 <=1 
C371: x10+x11 <=1 
C372: x10+x12 <=1 
C373: x10+x13 <=1 
C374: x10+x14 <=1 
C375: x10+x15 <=1 
C376: x10+x16 <=1 
C377: x10+x19-y10_19 <=1 
C378: x10+x20-y10_20 <=1 
C379: x10+x21 <=1 
C380: x10+x22-y10_22 <=1 
C381: x10+x23-y10_23 <=1 
C382: x10+x24 <=1 
C383: x10+x25 <=1 
C384: x10+x27 <=1 
C385: x10+x31 <=1 
C386: x10+x32 <=1 
C387: x10+x33-y10_33 <=1 
C388: x10+x36-y10_36 <=1 
C389: x10+x37-y10_37 <=1 
C390: x10+x39 <=1 
C391: x10+x40-y10_40 <=1 
C392: x10+x41 <=1 
C393: x10+x42 <=1 
C394: x10+x44 <=1 
C395: x10+x45-y10_45 <=1 
C396: x10+x46 <=1 
C397: x10+x48 <=1 
C398: x10+x52-y10_52 <=1 
C399: x10+x53 <=1 
C400: x10+x54-y10_54 <=1 
C401: x10+x56 <=1 
C402: x10+x57 <=1 
C403: x10+x58-y10_58 <=1 
C404: x10+x59-y10_59 <=1 
C405: x10+x60-y10_60 <=1 
C406: x10+x62-y10_62 <=1 
C407: x10+x63-y10_63 <=1 
C408: x11+x12 <=1 
C409: x11+x13 <=1 
C410: x11+x16-y11_16 <=1 
C411: x11+x18-y11_18 <=1 
C412: x11+x19-y11_19 <=1 
C413: x11+x20 <=1 
C414: x11+x21 <=1 
C415: x11+x22 <=1 
C416: x11+x23-y11_23 <=1 
C417: x11+x24 <=1 
C418: x11+x25 <=1 
C419: x11+x26 <=1 
C420: x11+x28-y11_28 <=1 
C421: x11+x29-y11_29 <=1 
C422: x11+x30-y11_30 <=1 
C423: x11+x31-y11_31 <=1 
C424: x11+x32 <=1 
C425: x11+x34 <=1 
C426: x11+x35 <=1 
C427: x11+x37-y11_37 <=1 
C428: x11+x38-y11_38 <=1 
C429: x11+x39 <=1 
C430: x11+x41-y11_41 <=1 
C431: x11+x42-y11_42 <=1 
C432: x11+x43 <=1 
C433: x11+x44 <=1 
C434: x11+x46 <=1 
C435: x11+x47 <=1 
C436: x11+x52-y11_52 <=1 
C437: x11+x53-y11_53 <=1 
C438: x11+x56-y11_56 <=1 
C439: x11+x58 <=1 
C440: x11+x61-y11_61 <=1 
C441: x11+x62-y11_62 <=1 
C442: x12+x13 <=1 
C443: x12+x14 <=1 
C444: x12+x17 <=1 
C445: x12+x18 <=1 
C446: x12+x22-y12_22 <=1 
C447: x12+x23 <=1 
C448: x12+x24 <=1 
C449: x12+x26-y12_26 <=1 
C450: x12+x29 <=1 
C451: x12+x31 <=1 
C452: x12+x32-y12_32 <=1 
C453: x12+x33-y12_33 <=1 
C454: x12+x34-y12_34 <=1 
C455: x12+x39 <=1 
C456: x12+x42-y12_42 <=1 
C457: x12+x43 <=1 
C458: x12+x44 <=1 
C459: x12+x45 <=1 
C460: x12+x53-y12_53 <=1 
C461: x12+x54-y12_54 <=1 
C462: x12+x57-y12_57 <=1 
C463: x12+x58 <=1 
C464: x12+x61-y12_61 <=1 
C465: x13+x14-y13_14 <=1 
C466: x13+x16-y13_16 <=1 
C467: x13+x20-y13_20 <=1 
C468: x13+x21 <=1 
C469: x13+x22-y13_22 <=1 
C470: x13+x23-y13_23 <=1 
C471: x13+x24-y13_24 <=1 
C472: x13+x25-y13_25 <=1 
C473: x13+x26 <=1 
C474: x13+x28-y13_28 <=1 
C475: x13+x31-y13_31 <=1 
C476: x13+x34-y13_34 <=1 
C477: x13+x36 <=1 
C478: x13+x37-y13_37 <=1 
C479: x13+x38-y13_38 <=1 
C480: x13+x39 <=1 
C481: x13+x41 <=1 
C482: x13+x44 <=1 
C483: x13+x45 <=1 
C484: x13+x47 <=1 
C485: x13+x48-y13_48 <=1 
C486: x13+x49 <=1 
C487: x13+x51 <=1 
C488: x13+x52-y13_52 <=1 
C489: x13+x53 <=1 
C490: x13+x55 <=1 
C491: x13+x58 <=1 
C492: x13+x59 <=1 
C493: x13+x60 <=1 
C494: x13+x62 <=1 
C495: x14+x17 <=1 
C496: x14+x18 <=1 
C497: x14+x19 <=1 
C498: x14+x20-y14_20 <=1 
C499: x14+x25-y14_25 <=1 
C500: x14+x26-y14_26 <=1 
C501: x14+x29 <=1 
C502: x14+x33 <=1 
C503: x14+x34 <=1 
C504: x14+x36 <=1 
C505: x14+x37 <=1 
C506: x14+x38-y14_38 <=1 
C507: x14+x40 <=1 
C508: x14+x41-y14_41 <=1 
C509: x14+x45 <=1 
C510: x14+x47-y14_47 <=1 
C511: x14+x49 <=1 
C512: x14+x51 <=1 
C513: x14+x52-y14_52 <=1 
C514: x14+x53-y14_53 <=1 
C515: x14+x58 <=1 
C516: x14+x59 <=1 
C517: x14+x61 <=1 
C518: x14+x62 <=1 
C519: x15+x18 <=1 
C520: x15+x19-y15_19 <=1 
C521: x15+x21 <=1 
C522: x15+x22-y15_22 <=1 
C523: x15+x23 <=1 
C524: x15+x24 <=1 
C525: x15+x25 <=1 
C526: x15+x26-y15_26 <=1 
C527: x15+x27 <=1 
C528: x15+x30-y15_30 <=1 
C529: x15+x32 <=1 
C530: x15+x35-y15_35 <=1 
C531: x15+x38-y15_38 <=1 
C532: x15+x40 <=1 
C533: x15+x41-y15_41 <=1 
C534: x15+x42 <=1 
C535: x15+x43 <=1 
C536: x15+x44-y15_44 <=1 
C537: x15+x46-y15_46 <=1 
C538: x15+x50 <=1 
C539: x15+x51-y15_51 <=1 
C540: x15+x53 <=1 
C541: x15+x55 <=1 
C542: x15+x56 <=1 
C543: x15+x60 <=1 
C544: x15+x61 <=1 
C545: x16+x18-y16_18 <=1 
C546: x16+x20 <=1 
C547: x16+x21 <=1 
C548: x16+x22 <=1 
C549: x16+x24 <=1 
C550: x16+x25 <=1 
C551: x16+x27-y16_27 <=1 
C552: x16+x29-y16_29 <=1 
C553: x16+x30-y16_30 <=1 
C554: x16+x32-y16_32 <=1 
C555: x16+x33-y16_33 <=1 
C556: x16+x34 <=1 
C557: x16+x35 <=1 
C558: x16+x36 <=1 
C559: x16+x37-y16_37 <=1 
C560: x16+x41-y16_41 <=1 
C561: x16+x42-y16_42 <=1 
C562: x16+x43-y16_43 <=1 
C563: x16+x44-y16_44 <=1 
C564: x16+x47-y16_47 <=1 
C565: x16+x48-y16_48 <=1 
C566: x16+x49-y16_49 <=1 
C567: x16+x50-y16_50 <=1 
C568: x16+x51-y16_51 <=1 
C569: x16+x53-y16_53 <=1 
C570: x16+x54-y16_54 <=1 
C571: x16+x57 <=1 
C572: x16+x60-y16_60 <=1 
C573: x16+x61-y16_61 <=1 
C574: x16+x62-y16_62 <=1 
C575: x17+x18 <=1 
C576: x17+x19-y17_19 <=1 
C577: x17+x22-y17_22 <=1 
C578: x17+x23 <=1 
C579: x17+x24 <=1 
C580: x17+x25-y17_25 <=1 
C581: x17+x28 <=1 
C582: x17+x30 <=1 
C583: x17+x34 <=1 
C584: x17+x35-y17_35 <=1 
C585: x17+x36 <=1 
C586: x17+x37-y17_37 <=1 
C587: x17+x38-y17_38 <=1 
C588: x17+x40 <=1 
C589: x17+x42 <=1 
C590: x17+x44-y17_44 <=1 
C591: x17+x45 <=1 
C592: x17+x46 <=1 
C593: x17+x47 <=1 
C594: x17+x48 <=1 
C595: x17+x49-y17_49 <=1 
C596: x17+x50 <=1 
C597: x17+x51 <=1 
C598: x17+x52 <=1 
C599: x17+x54-y17_54 <=1 
C600: x17+x55 <=1 
C601: x17+x56 <=1 
C602: x17+x57-y17_57 <=1 
C603: x17+x58 <=1 
C604: x17+x59 <=1 
C605: x17+x61 <=1 
C606: x17+x63-y17_63 <=1 
C607: x18+x19 <=1 
C608: x18+x21 <=1 
C609: x18+x26 <=1 
C610: x18+x30 <=1 
C611: x18+x31 <=1 
C612: x18+x32 <=1 
C613: x18+x33-y18_33 <=1 
C614: x18+x34 <=1 
C615: x18+x35-y18_35 <=1 
C616: x18+x38 <=1 
C617: x18+x40-y18_40 <=1 
C618: x18+x43 <=1 
C619: x18+x44 <=1 
C620: x18+x45-y18_45 <=1 
C621: x18+x47 <=1 
C622: x18+x53-y18_53 <=1 
C623: x18+x54-y18_54 <=1 
C624: x18+x55-y18_55 <=1 
C625: x18+x60-y18_60 <=1 
C626: x18+x62 <=1 
C627: x18+x63 <=1 
C628: x19+x21-y19_21 <=1 
C629: x19+x22-y19_22 <=1 
C630: x19+x23-y19_23 <=1 
C631: x19+x24-y19_24 <=1 
C632: x19+x26 <=1 
C633: x19+x29-y19_29 <=1 
C634: x19+x30-y19_30 <=1 
C635: x19+x33 <=1 
C636: x19+x36-y19_36 <=1 
C637: x19+x38 <=1 
C638: x19+x39-y19_39 <=1 
C639: x19+x42-y19_42 <=1 
C640: x19+x45 <=1 
C641: x19+x46-y19_46 <=1 
C642: x19+x48 <=1 
C643: x19+x52 <=1 
C644: x19+x53 <=1 
C645: x19+x54 <=1 
C646: x19+x59-y19_59 <=1 
C647: x19+x60-y19_60 <=1 
C648: x19+x62 <=1 
C649: x19+x63 <=1 
C650: x20+x21-y20_21 <=1 
C651: x20+x22 <=1 
C652: x20+x23-y20_23 <=1 
C653: x20+x24-y20_24 <=1 
C654: x20+x25 <=1 
C655: x20+x28-y20_28 <=1 
C656: x20+x30 <=1 
C657: x20+x31-y20_31 <=1 
C658: x20+x32 <=1 
C659: x20+x34-y20_34 <=1 
C660: x20+x35 <=1 
C661: x20+x37 <=1 
C662: x20+x41 <=1 
C663: x20+x43 <=1 
C664: x20+x44 <=1 
C665: x20+x47 <=1 
C666: x20+x48 <=1 
C667: x20+x49 <=1 
C668: x20+x54 <=1 
C669: x20+x55-y20_55 <=1 
C670: x20+x58-y20_58 <=1 
C671: x20+x63-y20_63 <=1 
C672: x21+x23 <=1 
C673: x21+x25-y21_25 <=1 
C674: x21+x26-y21_26 <=1 
C675: x21+x27-y21_27 <=1 
C676: x21+x28 <=1 
C677: x21+x30 <=1 
C678: x21+x31-y21_31 <=1 
C679: x21+x33 <=1 
C680: x21+x35-y21_35 <=1 
C681: x21+x36-y21_36 <=1 
C682: x21+x38-y21_38 <=1 
C683: x21+x39 <=1 
C684: x21+x42 <=1 
C685: x21+x43-y21_43 <=1 
C686: x21+x44 <=1 
C687: x21+x46 <=1 
C688: x21+x49 <=1 
C689: x21+x50 <=1 
C690: x21+x52 <=1 
C691: x21+x53 <=1 
C692: x21+x54 <=1 
C693: x21+x55-y21_55 <=1 
C694: x21+x56 <=1 
C695: x21+x58 <=1 
C696: x21+x61 <=1 
C697: x21+x62 <=1 
C698: x21+x63 <=1 
C699: x22+x24-y22_24 <=1 
C700: x22+x25 <=1 
C701: x22+x26 <=1 
C702: x22+x27 <=1 
C703: x22+x28-y22_28 <=1 
C704: x22+x30 <=1 
C705: x22+x32-y22_32 <=1 
C706: x22+x33-y22_33 <=1 
C707: x22+x35-y22_35 <=1 
C708: x22+x37-y22_37 <=1 
C709: x22+x38 <=1 
C710: x22+x41-y22_41 <=1 
C711: x22+x46 <=1 
C712: x22+x47 <=1 
C713: x22+x48 <=1 
C714: x22+x49 <=1 
C715: x22+x50 <=1 
C716: x22+x51 <=1 
C717: x22+x53 <=1 
C718: x22+x56-y22_56 <=1 
C719: x22+x59-y22_59 <=1 
C720: x22+x62-y22_62 <=1 
C721: x22+x63-y22_63 <=1 
C722: x23+x25 <=1 
C723: x23+x28 <=1 
C724: x23+x29 <=1 
C725: x23+x34 <=1 
C726: x23+x35-y23_35 <=1 
C727: x23+x36 <=1 
C728: x23+x38-y23_38 <=1 
C729: x23+x39 <=1 
C730: x23+x42-y23_42 <=1 
C731: x23+x43-y23_43 <=1 
C732: x23+x45 <=1 
C733: x23+x46-y23_46 <=1 
C734: x23+x47-y23_47 <=1 
C735: x23+x48 <=1 
C736: x23+x49 <=1 
C737: x23+x50-y23_50 <=1 
C738: x23+x52 <=1 
C739: x23+x53 <=1 
C740: x23+x55-y23_55 <=1 
C741: x23+x57-y23_57 <=1 
C742: x23+x59 <=1 
C743: x23+x60-y23_60 <=1 
C744: x23+x61-y23_61 <=1 
C745: x23+x62 <=1 
C746: x23+x63 <=1 
C747: x24+x25 <=1 
C748: x24+x29-y24_29 <=1 
C749: x24+x30-y24_30 <=1 
C750: x24+x31 <=1 
C751: x24+x32 <=1 
C752: x24+x35 <=1 
C753: x24+x37 <=1 
C754: x24+x39-y24_39 <=1 
C755: x24+x46 <=1 
C756: x24+x49 <=1 
C757: x24+x53-y24_53 <=1 
C758: x24+x54-y24_54 <=1 
C759: x24+x55-y24_55 <=1 
C760: x24+x58 <=1 
C761: x24+x59 <=1 
C762: x24+x60 <=1 
C763: x24+x61 <=1 
C764: x24+x63-y24_63 <=1 
C765: x25+x27-y25_27 <=1 
C766: x25+x35 <=1 
C767: x25+x38-y25_38 <=1 
C768: x25+x40 <=1 
C769: x25+x41-y25_41 <=1 
C770: x25+x42-y25_42 <=1 
C771: x25+x43-y25_43 <=1 
C772: x25+x44 <=1 
C773: x25+x45-y25_45 <=1 
C774: x25+x47 <=1 
C775: x25+x49 <=1 
C776: x25+x50-y25_50 <=1 
C777: x25+x51-y25_51 <=1 
C778: x25+x52-y25_52 <=1 
C779: x25+x53-y25_53 <=1 
C780: x25+x55-y25_55 <=1 
C781: x25+x63-y25_63 <=1 
C782: x26+x27-y26_27 <=1 
C783: x26+x28 <=1 
C784: x26+x29 <=1 
C785: x26+x32-y26_32 <=1 
C786: x26+x33 <=1 
C787: x26+x34 <=1 
C788: x26+x35-y26_35 <=1 
C789: x26+x37-y26_37 <=1 
C790: x26+x38-y26_38 <=1 
C791: x26+x39-y26_39 <=1 
C792: x26+x40 <=1 
C793: x26+x42 <=1 
C794: x26+x43 <=1 
C795: x26+x44 <=1 
C796: x26+x45 <=1 
C797: x26+x46-y26_46 <=1 
C798: x26+x47-y26_47 <=1 
C799: x26+x48 <=1 
C800: x26+x49-y26_49 <=1 
C801: x26+x50 <=1 
C802: x26+x53 <=1 
C803: x26+x54 <=1 
C804: x26+x55-y26_55 <=1 
C805: x26+x59-y26_59 <=1 
C806: x26+x60 <=1 
C807: x26+x62 <=1 
C808: x27+x28 <=1 
C809: x27+x29 <=1 
C810: x27+x30-y27_30 <=1 
C811: x27+x34 <=1 
C812: x27+x35-y27_35 <=1 
C813: x27+x36-y27_36 <=1 
C814: x27+x39 <=1 
C815: x27+x40 <=1 
C816: x27+x41 <=1 
C817: x27+x42 <=1 
C818: x27+x44-y27_44 <=1 
C819: x27+x45-y27_45 <=1 
C820: x27+x47 <=1 
C821: x27+x48-y27_48 <=1 
C822: x27+x50 <=1 
C823: x27+x51-y27_51 <=1 
C824: x27+x52 <=1 
C825: x27+x54 <=1 
C826: x27+x55-y27_55 <=1 
C827: x27+x56-y27_56 <=1 
C828: x27+x57 <=1 
C829: x27+x58 <=1 
C830: x27+x59 <=1 
C831: x27+x62-y27_62 <=1 
C832: x28+x29 <=1 
C833: x28+x31-y28_31 <=1 
C834: x28+x32 <=1 
C835: x28+x33 <=1 
C836: x28+x35-y28_35 <=1 
C837: x28+x37-y28_37 <=1 
C838: x28+x39 <=1 
C839: x28+x42-y28_42 <=1 
C840: x28+x46-y28_46 <=1 
C841: x28+x47 <=1 
C842: x28+x48-y28_48 <=1 
C843: x28+x50-y28_50 <=1 
C844: x28+x51 <=1 
C845: x28+x52-y28_52 <=1 
C846: x28+x53-y28_53 <=1 
C847: x28+x55 <=1 
C848: x28+x56 <=1 
C849: x28+x57-y28_57 <=1 
C850: x28+x58-y28_58 <=1 
C851: x28+x59 <=1 
C852: x29+x30 <=1 
C853: x29+x33 <=1 
C854: x29+x34 <=1 
C855: x29+x36 <=1 
C856: x29+x37 <=1 
C857: x29+x39 <=1 
C858: x29+x40-y29_40 <=1 
C859: x29+x41-y29_41 <=1 
C860: x29+x46 <=1 
C861: x29+x48-y29_48 <=1 
C862: x29+x50 <=1 
C863: x29+x51 <=1 
C864: x29+x52-y29_52 <=1 
C865: x29+x53-y29_53 <=1 
C866: x29+x54-y29_54 <=1 
C867: x29+x56-y29_56 <=1 
C868: x29+x57 <=1 
C869: x29+x58-y29_58 <=1 
C870: x29+x59-y29_59 <=1 
C871: x29+x60 <=1 
C872: x29+x61-y29_61 <=1 
C873: x29+x63 <=1 
C874: x30+x31-y30_31 <=1 
C875: x30+x32-y30_32 <=1 
C876: x30+x34 <=1 
C877: x30+x35 <=1 
C878: x30+x37-y30_37 <=1 
C879: x30+x38-y30_38 <=1 
C880: x30+x39-y30_39 <=1 
C881: x30+x40 <=1 
C882: x30+x42 <=1 
C883: x30+x45-y30_45 <=1 
C884: x30+x47 <=1 
C885: x30+x48-y30_48 <=1 
C886: x30+x53 <=1 
C887: x30+x54 <=1 
C888: x30+x56-y30_56 <=1 
C889: x30+x57 <=1 
C890: x30+x60 <=1 
C891: x30+x61 <=1 
C892: x30+x62-y30_62 <=1 
C893: x31+x34 <=1 
C894: x31+x37-y31_37 <=1 
C895: x31+x38-y31_38 <=1 
C896: x31+x39-y31_39 <=1 
C897: x31+x40 <=1 
C898: x31+x42 <=1 
C899: x31+x43 <=1 
C900: x31+x44-y31_44 <=1 
C901: x31+x45 <=1 
C902: x31+x46 <=1 
C903: x31+x47-y31_47 <=1 
C904: x31+x48 <=1 
C905: x31+x50-y31_50 <=1 
C906: x31+x53 <=1 
C907: x31+x54-y31_54 <=1 
C908: x31+x55 <=1 
C909: x31+x56-y31_56 <=1 
C910: x31+x57-y31_57 <=1 
C911: x31+x58-y31_58 <=1 
C912: x31+x59-y31_59 <=1 
C913: x31+x62-y31_62 <=1 
C914: x31+x63-y31_63 <=1 
C915: x32+x33-y32_33 <=1 
C916: x32+x35-y32_35 <=1 
C917: x32+x36-y32_36 <=1 
C918: x32+x38-y32_38 <=1 
C919: x32+x41-y32_41 <=1 
C920: x32+x42-y32_42 <=1 
C921: x32+x44 <=1 
C922: x32+x46-y32_46 <=1 
C923: x32+x47 <=1 
C924: x32+x48-y32_48 <=1 
C925: x32+x50-y32_50 <=1 
C926: x32+x51-y32_51 <=1 
C927: x32+x53-y32_53 <=1 
C928: x32+x54-y32_54 <=1 
C929: x32+x58 <=1 
C930: x32+x61-y32_61 <=1 
C931: x32+x62 <=1 
C932: x33+x34 <=1 
C933: x33+x36 <=1 
C934: x33+x37-y33_37 <=1 
C935: x33+x38 <=1 
C936: x33+x39 <=1 
C937: x33+x40 <=1 
C938: x33+x41 <=1 
C939: x33+x42-y33_42 <=1 
C940: x33+x43 <=1 
C941: x33+x44-y33_44 <=1 
C942: x33+x45-y33_45 <=1 
C943: x33+x48 <=1 
C944: x33+x49-y33_49 <=1 
C945: x33+x50-y33_50 <=1 
C946: x33+x51 <=1 
C947: x33+x54-y33_54 <=1 
C948: x33+x57 <=1 
C949: x33+x58-y33_58 <=1 
C950: x33+x59-y33_59 <=1 
C951: x33+x60-y33_60 <=1 
C952: x33+x61 <=1 
C953: x33+x62-y33_62 <=1 
C954: x33+x63 <=1 
C955: x34+x39-y34_39 <=1 
C956: x34+x44 <=1 
C957: x34+x45 <=1 
C958: x34+x46-y34_46 <=1 
C959: x34+x50-y34_50 <=1 
C960: x34+x51-y34_51 <=1 
C961: x34+x53-y34_53 <=1 
C962: x34+x55-y34_55 <=1 
C963: x34+x56 <=1 
C964: x34+x57-y34_57 <=1 
C965: x34+x58-y34_58 <=1 
C966: x34+x59-y34_59 <=1 
C967: x34+x60 <=1 
C968: x34+x61 <=1 
C969: x35+x36 <=1 
C970: x35+x38 <=1 
C971: x35+x39-y35_39 <=1 
C972: x35+x43-y35_43 <=1 
C973: x35+x45 <=1 
C974: x35+x46 <=1 
C975: x35+x47 <=1 
C976: x35+x49-y35_49 <=1 
C977: x35+x50 <=1 
C978: x35+x52-y35_52 <=1 
C979: x35+x54-y35_54 <=1 
C980: x35+x55-y35_55 <=1 
C981: x35+x56-y35_56 <=1 
C982: x35+x57 <=1 
C983: x35+x58-y35_58 <=1 
C984: x35+x59-y35_59 <=1 
C985: x35+x62 <=1 
C986: x36+x37 <=1 
C987: x36+x38 <=1 
C988: x36+x39-y36_39 <=1 
C989: x36+x40-y36_40 <=1 
C990: x36+x41 <=1 
C991: x36+x42-y36_42 <=1 
C992: x36+x44 <=1 
C993: x36+x45 <=1 
C994: x36+x47-y36_47 <=1 
C995: x36+x49-y36_49 <=1 
C996: x36+x51-y36_51 <=1 
C997: x36+x52-y36_52 <=1 
C998: x36+x54-y36_54 <=1 
C999: x36+x56 <=1 
C1000: x36+x57-y36_57 <=1 
C1001: x36+x58-y36_58 <=1 
C1002: x36+x59-y36_59 <=1 
C1003: x36+x61 <=1 
C1004: x36+x62 <=1 
C1005: x36+x63-y36_63 <=1 
C1006: x37+x41-y37_41 <=1 
C1007: x37+x42-y37_42 <=1 
C1008: x37+x43-y37_43 <=1 
C1009: x37+x45-y37_45 <=1 
C1010: x37+x48-y37_48 <=1 
C1011: x37+x49-y37_49 <=1 
C1012: x37+x51 <=1 
C1013: x37+x53-y37_53 <=1 
C1014: x37+x54-y37_54 <=1 
C1015: x37+x57-y37_57 <=1 
C1016: x37+x58-y37_58 <=1 
C1017: x37+x59 <=1 
C1018: x37+x60-y37_60 <=1 
C1019: x37+x62 <=1 
C1020: x38+x40-y38_40 <=1 
C1021: x38+x41-y38_41 <=1 
C1022: x38+x43-y38_43 <=1 
C1023: x38+x44-y38_44 <=1 
C1024: x38+x45-y38_45 <=1 
C1025: x38+x46-y38_46 <=1 
C1026: x38+x48 <=1 
C1027: x38+x49 <=1 
C1028: x38+x50 <=1 
C1029: x38+x51 <=1 
C1030: x38+x53-y38_53 <=1 
C1031: x38+x55-y38_55 <=1 
C1032: x38+x60 <=1 
C1033: x38+x62-y38_62 <=1 
C1034: x38+x63 <=1 
C1035: x39+x42-y39_42 <=1 
C1036: x39+x45-y39_45 <=1 
C1037: x39+x46-y39_46 <=1 
C1038: x39+x47-y39_47 <=1 
C1039: x39+x48-y39_48 <=1 
C1040: x39+x49-y39_49 <=1 
C1041: x39+x50-y39_50 <=1 
C1042: x39+x51-y39_51 <=1 
C1043: x39+x54-y39_54 <=1 
C1044: x39+x55-y39_55 <=1 
C1045: x39+x56-y39_56 <=1 
C1046: x39+x58 <=1 
C1047: x39+x60-y39_60 <=1 
C1048: x39+x61 <=1 
C1049: x39+x63 <=1 
C1050: x40+x41 <=1 
C1051: x40+x42-y40_42 <=1 
C1052: x40+x44-y40_44 <=1 
C1053: x40+x46-y40_46 <=1 
C1054: x40+x51-y40_51 <=1 
C1055: x40+x52 <=1 
C1056: x40+x54 <=1 
C1057: x40+x56-y40_56 <=1 
C1058: x40+x59 <=1 
C1059: x40+x61 <=1 
C1060: x41+x46 <=1 
C1061: x41+x47-y41_47 <=1 
C1062: x41+x48 <=1 
C1063: x41+x49-y41_49 <=1 
C1064: x41+x50-y41_50 <=1 
C1065: x41+x52 <=1 
C1066: x41+x55-y41_55 <=1 
C1067: x41+x56-y41_56 <=1 
C1068: x41+x60-y41_60 <=1 
C1069: x41+x61 <=1 
C1070: x41+x63 <=1 
C1071: x42+x43-y42_43 <=1 
C1072: x42+x44-y42_44 <=1 
C1073: x42+x45 <=1 
C1074: x42+x46-y42_46 <=1 
C1075: x42+x48-y42_48 <=1 
C1076: x42+x50-y42_50 <=1 
C1077: x42+x51-y42_51 <=1 
C1078: x42+x53-y42_53 <=1 
C1079: x42+x55 <=1 
C1080: x42+x56-y42_56 <=1 
C1081: x42+x58-y42_58 <=1 
C1082: x42+x61 <=1 
C1083: x42+x62 <=1 
C1084: x43+x46-y43_46 <=1 
C1085: x43+x47 <=1 
C1086: x43+x48-y43_48 <=1 
C1087: x43+x51 <=1 
C1088: x43+x54 <=1 
C1089: x43+x55 <=1 
C1090: x43+x56 <=1 
C1091: x43+x60 <=1 
C1092: x43+x61-y43_61 <=1 
C1093: x43+x62-y43_62 <=1 
C1094: x43+x63 <=1 
C1095: x44+x45-y44_45 <=1 
C1096: x44+x46-y44_46 <=1 
C1097: x44+x47-y44_47 <=1 
C1098: x44+x51-y44_51 <=1 
C1099: x44+x54 <=1 
C1100: x44+x55 <=1 
C1101: x44+x56 <=1 
C1102: x44+x57 <=1 
C1103: x44+x59 <=1 
C1104: x44+x61 <=1 
C1105: x44+x62-y44_62 <=1 
C1106: x45+x46-y45_46 <=1 
C1107: x45+x47-y45_47 <=1 
C1108: x45+x48 <=1 
C1109: x45+x52 <=1 
C1110: x45+x53 <=1 
C1111: x45+x57 <=1 
C1112: x45+x62-y45_62 <=1 
C1113: x45+x63-y45_63 <=1 
C1114: x46+x47 <=1 
C1115: x46+x48-y46_48 <=1 
C1116: x46+x49 <=1 
C1117: x46+x51 <=1 
C1118: x46+x52 <=1 
C1119: x46+x54 <=1 
C1120: x46+x55-y46_55 <=1 
C1121: x46+x57 <=1 
C1122: x46+x58 <=1 
C1123: x46+x59 <=1 
C1124: x46+x61 <=1 
C1125: x46+x62 <=1 
C1126: x47+x49-y47_49 <=1 
C1127: x47+x50-y47_50 <=1 
C1128: x47+x53 <=1 
C1129: x47+x54 <=1 
C1130: x47+x57-y47_57 <=1 
C1131: x47+x58 <=1 
C1132: x47+x59 <=1 
C1133: x47+x60 <=1 
C1134: x47+x61-y47_61 <=1 
C1135: x47+x62-y47_62 <=1 
C1136: x47+x63 <=1 
C1137: x48+x52-y48_52 <=1 
C1138: x48+x53 <=1 
C1139: x48+x55 <=1 
C1140: x48+x57 <=1 
C1141: x48+x59 <=1 
C1142: x48+x61 <=1 
C1143: x48+x62 <=1 
C1144: x49+x51-y49_51 <=1 
C1145: x49+x52 <=1 
C1146: x49+x57-y49_57 <=1 
C1147: x49+x58-y49_58 <=1 
C1148: x49+x59 <=1 
C1149: x49+x63 <=1 
C1150: x50+x52-y50_52 <=1 
C1151: x50+x53 <=1 
C1152: x50+x54-y50_54 <=1 
C1153: x50+x55 <=1 
C1154: x50+x56-y50_56 <=1 
C1155: x50+x58 <=1 
C1156: x50+x59-y50_59 <=1 
C1157: x50+x60 <=1 
C1158: x51+x52 <=1 
C1159: x51+x53 <=1 
C1160: x51+x54-y51_54 <=1 
C1161: x51+x55 <=1 
C1162: x51+x56 <=1 
C1163: x51+x58-y51_58 <=1 
C1164: x51+x60 <=1 
C1165: x51+x62 <=1 
C1166: x52+x53-y52_53 <=1 
C1167: x52+x54-y52_54 <=1 
C1168: x52+x56-y52_56 <=1 
C1169: x52+x58 <=1 
C1170: x52+x59-y52_59 <=1 
C1171: x52+x61-y52_61 <=1 
C1172: x52+x63-y52_63 <=1 
C1173: x53+x55 <=1 
C1174: x53+x56-y53_56 <=1 
C1175: x53+x59-y53_59 <=1 
C1176: x53+x61 <=1 
C1177: x53+x63-y53_63 <=1 
C1178: x54+x56-y54_56 <=1 
C1179: x54+x59-y54_59 <=1 
C1180: x54+x60-y54_60 <=1 
C1181: x54+x61 <=1 
C1182: x55+x56 <=1 
C1183: x55+x59 <=1 
C1184: x55+x61 <=1 
C1185: x55+x62-y55_62 <=1 
C1186: x56+x57 <=1 
C1187: x56+x58-y56_58 <=1 
C1188: x56+x61-y56_61 <=1 
C1189: x56+x62-y56_62 <=1 
C1190: x57+x59-y57_59 <=1 
C1191: x57+x60 <=1 
C1192: x57+x61-y57_61 <=1 
C1193: x57+x62 <=1 
C1194: x57+x63-y57_63 <=1 
C1195: x58+x59 <=1 
C1196: x58+x61 <=1 
C1197: x58+x63 <=1 
C1198: x59+x61-y59_61 <=1 
C1199: x60+x61 <=1 
C1200: x60+x62 <=1 
C1201: x61+x62 <=1 
C1202: x61+x63-y61_63 <=1 
C1203: x62+x63-y62_63 <=1 

binary
x0
x1
x2
x3
x4
x5
x6
x7
x8
x9
x10
x11
x12
x13
x14
x15
x16
x17
x18
x19
x20
x21
x22
x23
x24
x25
x26
x27
x28
x29
x30
x31
x32
x33
x34
x35
x36
x37
x38
x39
x40
x41
x42
x43
x44
x45
x46
x47
x48
x49
x50
x51
x52
x53
x54
x55
x56
x57
x58
x59
x60
x61
x62
x63
