problem_generation/data/GISP/train/er_n=64_m=1203_p=0.60_SET2_setparam=100.00_alpha=0.50_669.sol
objective value:                                 1173
x6                                                  1 	(obj:100)
x8                                                  1 	(obj:100)
x16                                                 1 	(obj:100)
x32                                                 1 	(obj:100)
x38                                                 1 	(obj:100)
x39                                                 1 	(obj:100)
x41                                                 1 	(obj:100)
x42                                                 1 	(obj:100)
x53                                                 1 	(obj:100)
x54                                                 1 	(obj:100)
x56                                                 1 	(obj:100)
x59                                                 1 	(obj:100)
y32_41                                              1 	(obj:-1)
y32_54                                              1 	(obj:-1)
y54_59                                              1 	(obj:-1)
y16_32                                              1 	(obj:-1)
y16_41                                              1 	(obj:-1)
y42_53                                              1 	(obj:-1)
y39_56                                              1 	(obj:-1)
y16_54                                              1 	(obj:-1)
y39_42                                              1 	(obj:-1)
y38_41                                              1 	(obj:-1)
y8_54                                               1 	(obj:-1)
y42_56                                              1 	(obj:-1)
y53_56                                              1 	(obj:-1)
y6_41                                               1 	(obj:-1)
y32_53                                              1 	(obj:-1)
y6_54                                               1 	(obj:-1)
y16_53                                              1 	(obj:-1)
y6_8                                                1 	(obj:-1)
y32_38                                              1 	(obj:-1)
y6_39                                               1 	(obj:-1)
y39_54                                              1 	(obj:-1)
y32_42                                              1 	(obj:-1)
y54_56                                              1 	(obj:-1)
y38_53                                              1 	(obj:-1)
y16_42                                              1 	(obj:-1)
y53_59                                              1 	(obj:-1)
y41_56                                              1 	(obj:-1)
